
Gurobi 12.0.3 (linux64) logging started Fri Mar 27 09:41:56 2026

Set parameter LogFile to value "/home/solar-wind/WT_Solar_results_bigM100000_thread4/case24_ieee_rts_theta0.1_epsilon0.05_gurobi_seed40000_num_gen38_N_WDR250_load_scaling_factor1_EIFICA_T24_num_Solar5_num_WT10.txt"
Gurobi Optimizer version 12.0.3 build v12.0.3rc0 (linux64 - "Ubuntu 22.04.5 LTS")

CPU model: Intel(R) Xeon(R) Platinum 8378A CPU @ 3.00GHz, instruction set [SSE2|AVX|AVX2|AVX512]
Thread count: 32 physical cores, 64 logical processors, using up to 4 threads

Non-default parameters:
TimeLimit  14400
MIPGap  0.001
Seed  40000
Threads  4

Academic license 2721591 - for non-commercial use only - registered to fa___@mails.neu.edu.cn
Optimize a model with 658436 rows, 2075 columns and 62818024 nonzeros
Model fingerprint: 0xcebf2b0a
Model has 912 quadratic objective terms
Coefficient statistics:
  Matrix range     [3e-07, 7e+01]
  Objective range  [2e+01, 6e+01]
  QObjective range [4e-03, 2e-02]
  Bounds range     [0e+00, 0e+00]
  RHS range        [4e-02, 1e+03]
Presolve removed 532666 rows and 0 columns (presolve time = 5s)...
Presolve removed 533540 rows and 0 columns
Presolve time: 6.38s
Presolved: 124896 rows, 2949 columns, 3556354 nonzeros
Presolved model has 912 quadratic objective terms
Elapsed ordering time = 9s
Elapsed ordering time = 10s
Ordering time: 17.64s
Elapsed ordering time = 18s
Elapsed ordering time = 20s
Elapsed ordering time = 25s
Elapsed ordering time = 31s
Elapsed ordering time = 36s
Elapsed ordering time = 41s
Ordering time: 45.97s

Barrier statistics:
 Dense cols : 1059
 AA' NZ     : 1.204e+08
 Factor NZ  : 5.767e+08 (roughly 5.0 GB of memory)
 Factor Ops : 7.922e+12 (roughly 50 seconds per iteration)
 Threads    : 4

                  Objective                Residual
Iter       Primal          Dual         Primal    Dual     Compl     Time
   0   5.83312139e+08 -3.27161031e+08  3.80e+04 1.00e+03  9.93e+05   112s
   1   4.84706273e+08 -2.56701915e+08  3.37e+04 8.85e+02  8.80e+05   112s
   2   4.69866671e+08 -2.58145050e+08  3.30e+04 8.67e+02  8.77e+05   113s
   3   4.25013392e+08 -2.97809116e+08  3.09e+04 8.09e+02  8.40e+05   113s
   4   3.93070576e+08 -3.08817192e+08  2.94e+04 7.66e+02  8.12e+05   113s
   5   3.34788352e+08 -2.99237380e+08  2.64e+04 6.84e+02  7.27e+05   113s
   6   2.92427378e+08 -3.17927512e+08  2.41e+04 6.21e+02  6.81e+05   113s
   7   2.49891519e+08 -3.22938925e+08  2.17e+04 5.54e+02  6.08e+05   113s
   8   2.07899312e+08 -3.52607517e+08  1.90e+04 4.82e+02  5.54e+05   114s
   9   1.84317765e+08 -3.62197519e+08  1.74e+04 4.40e+02  5.06e+05   114s
  10   1.64971401e+08 -3.70331185e+08  1.61e+04 4.03e+02  4.64e+05   114s
  11   1.46247738e+08 -4.07199938e+08  1.48e+04 3.66e+02  4.48e+05   114s
  12   1.21636767e+08 -4.28836163e+08  1.29e+04 3.14e+02  3.86e+05   114s
  13   1.05153894e+08 -4.64079832e+08  1.15e+04 2.78e+02  3.55e+05   114s
  14   8.54674207e+07 -4.85812447e+08  9.76e+03 2.33e+02  3.00e+05   114s
  15   7.29672826e+07 -5.03712267e+08  8.59e+03 2.03e+02  2.62e+05   114s
  16   6.17152881e+07 -5.22168868e+08  7.49e+03 1.76e+02  2.28e+05   115s
  17   4.84934182e+07 -5.44361650e+08  6.10e+03 1.42e+02  1.85e+05   115s
  18   3.88812201e+07 -5.60203455e+08  5.03e+03 1.16e+02  1.53e+05   115s
  19   3.18176913e+07 -5.71383085e+08  4.20e+03 9.66e+01  1.28e+05   115s
  20   2.36443372e+07 -5.81101276e+08  3.21e+03 7.31e+01  9.76e+04   115s
  21   1.79211958e+07 -5.80988211e+08  2.47e+03 5.60e+01  7.56e+04   115s
  22   1.18088884e+07 -5.71655632e+08  1.65e+03 3.69e+01  5.39e+04   115s
  23   5.20694235e+06 -5.29040670e+08  1.16e+03 1.58e+01  2.73e+04   115s
  24   3.49820294e+06 -4.67583612e+08  8.08e+02 1.01e+01  1.80e+04   115s
  25   2.75353379e+06 -4.19060311e+08  6.15e+02 7.67e+00  1.39e+04   115s
  26   2.14251023e+06 -3.70225184e+08  4.57e+02 5.68e+00  1.05e+04   116s
  27   1.53221763e+06 -3.35143091e+08  2.88e+02 3.66e+00  7.56e+03   116s
  28   1.23751358e+06 -2.95340255e+08  2.03e+02 2.58e+00  5.69e+03   116s
  29   1.00830140e+06 -2.50832090e+08  1.30e+02 1.70e+00  4.03e+03   116s
  30   8.61583167e+05 -1.96187377e+08  7.93e+01 1.06e+00  2.64e+03   116s
  31   7.77909519e+05 -1.62005220e+08  5.15e+01 6.70e-01  1.89e+03   116s
  32   7.39117426e+05 -1.37002014e+08  3.48e+01 4.63e-01  1.46e+03   117s
  33   7.14166898e+05 -1.20945822e+08  2.26e+01 3.10e-01  1.19e+03   117s
  34   7.01246007e+05 -1.01799917e+08  1.67e+01 2.26e-01  9.56e+02   117s
  35   6.95850903e+05 -9.17988362e+07  1.38e+01 1.86e-01  8.41e+02   118s
  36   6.92049250e+05 -8.24526513e+07  1.13e+01 1.54e-01  7.40e+02   118s
  37   6.88873480e+05 -7.25417156e+07  8.94e+00 1.21e-01  6.40e+02   119s
  38   6.86138707e+05 -5.23834978e+07  6.62e+00 8.38e-02  4.53e+02   119s
  39   6.84604705e+05 -4.89943267e+07  4.93e+00 6.67e-02  4.26e+02   120s
  40   6.81938793e+05 -3.96652885e+07  3.51e+00 4.75e-02  3.41e+02   122s
  41   6.75475965e+05 -1.22523680e+07  3.74e-02 2.81e+00  1.01e+02   182s
  42   6.69692161e+05  1.73919647e+05  1.45e-03 1.41e-01  3.85e+00   255s
  43   6.19698547e+05  4.72112512e+05  1.54e-04 5.47e-03  1.15e+00   309s
  44   5.99328471e+05  5.54165177e+05  2.03e-05 1.53e-03  3.51e-01   405s
  45   5.94351527e+05  5.79033766e+05  5.14e-06 1.87e-04  1.19e-01   607s
  46   5.93582424e+05  5.82288927e+05  1.69e-07 6.15e-06  8.77e-02   643s
  47   5.92563960e+05  5.87842326e+05  4.67e-11 3.59e-11  3.67e-02   679s
  48   5.92113414e+05  5.90241787e+05  3.86e-11 7.96e-12  1.45e-02   715s
  49   5.91928855e+05  5.91205183e+05  5.58e-11 9.64e-11  5.62e-03   752s
  50   5.91859174e+05  5.91577031e+05  3.75e-10 1.73e-11  2.19e-03   785s
  51   5.91829264e+05  5.91735121e+05  3.59e-10 1.36e-11  7.31e-04   823s
  52   5.91818052e+05  5.91794659e+05  1.02e-09 7.46e-11  1.82e-04   862s
  53   5.91814709e+05  5.91812372e+05  5.26e-09 8.41e-11  1.82e-05   901s
  54   5.91814337e+05  5.91814278e+05  2.87e-09 3.25e-12  4.66e-07   939s
  55   5.91814328e+05  5.91814328e+05  6.48e-09 8.43e-10  1.01e-09   983s

Barrier solved model in 55 iterations and 983.30 seconds (733.39 work units)
Optimal objective 5.91814328e+05

